c FILE /home/rafael/Documents/HappySet/MIHS/inputs/happygen/output/graph_d_regular_k7_p0.2_v50_20241127_082643.txt
c SOURCE This is a d-regular graph formed for the happy graph colouring problem.
c DESCRIPTION It was generated using the problem generator of Rhyd Lewis
c
c GRAPH STATS
c Seed                             = 1198183293
c Number of Nodes                  = 50
c Number of colours k              = 7
c Number of pre-assignments        = 10
c Degree of all vertices           = 6
c Density                          = 0.122449
c 
c The degrees of nodes 1 to 50, respectively, are as follows 
c [6, 6, 6, 6, 6, 6, 6, 6, 6, 6, 6, 6, 6, 6, 6, 6, 6, 6, 6, 6, 6, 6, 6, 6, 6, 6, 
c  6, 6, 6, 6, 6, 6, 6, 6, 6, 6, 6, 6, 6, 6, 6, 6, 6, 6, 6, 6, 6, 6, 6, 6] 
c  
p edge 50 150 7
e 1 16
e 1 21
e 1 27
e 1 28
e 1 39
e 1 48
e 2 8
e 2 9
e 2 21
e 2 23
e 2 42
e 2 49
e 3 8
e 3 9
e 3 14
e 3 21
e 3 26
e 3 36
e 4 10
e 4 24
e 4 27
e 4 31
e 4 44
e 4 46
e 5 6
e 5 10
e 5 19
e 5 30
e 5 36
e 5 49
e 6 18
e 6 25
e 6 28
e 6 39
e 6 49
e 7 8
e 7 14
e 7 15
e 7 33
e 7 38
e 7 40
e 8 9
e 8 12
e 8 31
e 9 19
e 9 35
e 9 49
e 10 13
e 10 17
e 10 18
e 10 22
e 11 13
e 11 19
e 11 29
e 11 30
e 11 36
e 11 44
e 12 27
e 12 28
e 12 32
e 12 33
e 12 36
e 13 31
e 13 41
e 13 45
e 13 49
e 14 18
e 14 40
e 14 45
e 14 46
e 15 21
e 15 22
e 15 26
e 15 30
e 15 37
e 16 34
e 16 35
e 16 38
e 16 42
e 16 43
e 17 23
e 17 38
e 17 44
e 17 48
e 17 50
e 18 32
e 18 47
e 18 50
e 19 25
e 19 33
e 19 37
e 20 22
e 20 23
e 20 27
e 20 33
e 20 38
e 20 46
e 21 24
e 21 47
e 22 25
e 22 35
e 22 42
e 23 39
e 23 44
e 23 50
e 24 41
e 24 43
e 24 46
e 24 48
e 25 30
e 25 37
e 25 48
e 26 37
e 26 38
e 26 45
e 26 50
e 27 37
e 27 40
e 28 38
e 28 44
e 28 45
e 29 30
e 29 34
e 29 36
e 29 41
e 29 47
e 30 35
e 31 40
e 31 42
e 31 47
e 32 35
e 32 39
e 32 43
e 32 48
e 33 41
e 33 43
e 34 35
e 34 41
e 34 45
e 34 49
e 36 50
e 37 46
e 39 45
e 39 47
e 40 43
e 40 46
e 41 47
e 42 43
e 42 44
e 48 50
n 15 3
n 18 6
n 19 1
n 23 7
n 27 5
n 32 6
n 34 2
n 38 4
n 43 6
n 45 2
